4 5 1.0 0 0 0 0 4096 4096
0 0 1 0 1
0 0 5 -1 1 2 19 -1 1 4 19 -1 1 5 6 -1 1 3 15 -1 1 1 17 
0 0 5 -1 1 5 10 -1 1 4 6 -1 1 1 7 -1 1 3 18 -1 1 2 5 
0 0 5 -1 1 2 18 -1 1 1 11 -1 1 5 13 -1 1 4 16 -1 1 3 20 
0 0 5 -1 1 5 7 -1 1 2 5 -1 1 1 14 -1 1 4 5 -1 1 3 8 
